Copyright (C) 2013-2015, Filipe Brandao
Build (method = -2)
  #dp: 3485
  Step-3' Graph: 73 vertices and 1149 arcs (0.00s)
  Step-4' Graph: 73 vertices and 1149 arcs (0.00s)
  #V4/#V3 = 1.00
  #A4/#A3 = 1.00
Ready! (0.00s)
Optimize a model with 149 rows, 1150 columns and 3312 nonzeros
Found heuristic solution: objective 563
Presolve removed 46 rows and 67 columns
Presolve time: 0.01s
Presolved: 103 rows, 1083 columns, 3112 nonzeros
Variable types: 0 continuous, 1083 integer (0 binary)
Optimize a model with 103 rows, 1083 columns and 3112 nonzeros
Presolved: 103 rows, 1083 columns, 3112 nonzeros

Root barrier log...

Ordering time: 0.00s

Barrier statistics:
 AA' NZ     : 1.601e+03
 Factor NZ  : 3.062e+03
 Factor Ops : 1.202e+05 (less than 1 second per iteration)
 Threads    : 1

                  Objective                Residual
Iter       Primal          Dual         Primal    Dual     Compl     Time
   0   6.97264332e+03 -2.83037331e+04  7.05e+04 2.22e-16  1.20e+02     0s
   1   2.08270288e+03 -1.04082604e+04  1.02e+04 1.11e-15  1.96e+01     0s
   2   7.74838736e+02 -3.62856986e+03  4.20e+02 2.78e-15  2.44e+00     0s
   3   6.55124611e+02 -1.16756157e+03  6.97e+01 1.53e-15  8.73e-01     0s
   4   5.22077947e+02 -1.22196724e+02  9.63e+00 1.33e-15  2.97e-01     0s
   5   4.45160033e+02  3.54632204e+01  3.09e+00 1.89e-15  1.87e-01     0s
   6   4.04386433e+02  2.42497832e+02  9.26e-01 1.22e-15  7.38e-02     0s
   7   3.81983033e+02  3.41029927e+02  2.15e-01 1.11e-15  1.87e-02     0s
   8   3.77289386e+02  3.62941356e+02  2.66e-02 1.24e-15  6.52e-03     0s
   9   3.75507001e+02  3.70938270e+02  4.65e-03 1.22e-15  2.08e-03     0s
  10   3.75049303e+02  3.74893145e+02  1.08e-04 1.14e-15  7.10e-05     0s
  11   3.75000054e+02  3.74999891e+02  1.19e-12 1.30e-15  7.38e-08     0s
  12   3.75000000e+02  3.75000000e+02  1.20e-12 1.30e-15  7.38e-11     0s
  13   3.75000000e+02  3.75000000e+02  6.86e-13 1.18e-15  8.74e-17     0s

Barrier solved model in 13 iterations and 0.01 seconds
Optimal objective 3.75000000e+02


Root relaxation: objective 3.750000e+02, 362 iterations, 0.01 seconds

    Nodes    |    Current Node    |     Objective Bounds      |     Work
 Expl Unexpl |  Obj  Depth IntInf | Incumbent    BestBd   Gap | It/Node Time

*    0     0               0     375.0000000  375.00000  0.00%     -    0s

Explored 0 nodes (362 simplex iterations) in 0.02 seconds
Thread count was 1 (of 4 available processors)

Optimal solution found (tolerance 0.00e+00)
Best objective 3.750000000000e+02, best bound 3.750000000000e+02, gap 0.0%
Preprocessing time: 0.00 seconds
Gurobi run time: 0.02 seconds
Total run time: 0.02 seconds
Objective: 375
Solution:
1 x [i=1]
10 x [i=1, i=76]
13 x [i=2, i=75]
9 x [i=3, i=74]
8 x [i=4, i=73]
2 x [i=5]
7 x [i=5, i=73]
8 x [i=6, i=71]
1 x [i=7]
9 x [i=7, i=70]
1 x [i=7, i=71]
10 x [i=8, i=69]
1 x [i=8, i=72]
1 x [i=9, i=68]
12 x [i=9, i=72]
10 x [i=10, i=67]
4 x [i=10, i=68]
9 x [i=11, i=66]
8 x [i=12, i=65]
1 x [i=12, i=66]
9 x [i=13, i=64]
5 x [i=14, i=63]
5 x [i=14, i=64]
13 x [i=15, i=63]
1 x [i=16, i=61]
7 x [i=16, i=62]
7 x [i=17, i=60]
2 x [i=17, i=61]
9 x [i=18, i=59]
2 x [i=19, i=58]
3 x [i=19, i=59]
2 x [i=20, i=57]
3 x [i=20, i=61]
5 x [i=21, i=56]
8 x [i=22, i=55]
3 x [i=23, i=54]
7 x [i=23, i=57]
10 x [i=24, i=53]
6 x [i=25, i=52]
4 x [i=25, i=53]
4 x [i=26, i=52]
6 x [i=26, i=54]
6 x [i=27, i=50]
10 x [i=27, i=51]
8 x [i=28, i=49]
5 x [i=28, i=50]
11 x [i=29, i=48]
8 x [i=30, i=47]
7 x [i=31, i=46]
1 x [i=31, i=48]
5 x [i=32, i=45]
4 x [i=32, i=47]
10 x [i=33, i=44]
1 x [i=33, i=48]
4 x [i=34, i=43]
5 x [i=34, i=45]
8 x [i=35, i=42]
9 x [i=36, i=41]
1 x [i=36, i=42]
8 x [i=37, i=40]
6 x [i=37, i=43]
4 x [i=38, i=39]
2 x [i=38, i=40]
2 x [i=38, i=64]
4 x [i=61, i=62, i=62]
